============================[ Problem Statistics ]=============================
|                                                                             |
|  Number of variables:          3720                                         |
|  Number of clauses:            9676                                         |
|  Parse time:                   0.01 s                                       |
|  Eliminated clauses:           0.01 Mb                                      |
|  Simplification time:          0.01 s                                       |
|                                                                             |
============================[ Search Statistics ]==============================
| Conflicts |          ORIGINAL         |          LEARNT          | Progress |
|           |    Vars  Clauses Literals |    Limit  Clauses Lit/Cl |          |
===============================================================================
|       100 |     191      800     2560 |      293      100     11 | 87.608 % |
|       250 |     191      800     2560 |      322      250     10 | 87.608 % |
|       475 |     191      800     2560 |      354      475      9 | 87.608 % |
===============================================================================
restarts              : 6
conflicts             : 735            (36010 /sec)
decisions             : 2002           (0.00 % random) (98084 /sec)
propagations          : 26222          (1284699 /sec)
conflict literals     : 6316           (27.70 % deleted)
Memory used           : 2.00 MB
CPU time              : 0.020411 s

UNSATISFIABLE
